Water Network: 13
***********************************************************************************************

-------------------------------- Solving Reduced Model using gurobi --------------------------
WDN Model Name: exact_reduced_wdn.mod
Gurobi 13.0.0: Set parameter LogToConsole to value 1
  tech:outlev = 1
  tech:outlev_mp = 1
Set parameter Presolve to value 1
  pre:solve = 1
Set parameter Aggregate to value 1
  pre:aggregate = 1
Set parameter TimeLimit to value 600
  lim:time = 600
Set parameter NumericFocus to value 1
  alg:numericfocus = 1
Set parameter OBBT to value 0
  mip:obbt = 0
Set parameter ScaleFlag to value 1
  pre:scale = 1
Set parameter Method to value 2
  alg:method = 2
Set parameter NodeMethod to value 1
  mip:nodemethod = 1
Set parameter NonConvex to value 2
  qp:nonconvex = 2
Set parameter MIPFocus to value 1
  mip:focus = 1
Set parameter NLPHeur to value 1
  alg:nlpheur = 1
Set parameter VarBranch to value 0
  mip:varbranch = 0
Set parameter MIPGapAbs to value 1e-06
  mip:gapabs = 9.9999999999999995e-07
Set parameter MIPGap to value 1e-06
  mip:gap = 9.9999999999999995e-07
Set parameter FeasibilityTol to value 1e-06
  alg:feastol = 9.9999999999999995e-07
  cvt:pre:feastol = 9.9999999999999995e-07
  cvt:pre:feastolrel = 1.0000000000000001e-09
  sol:chk:feastol = 9.9999999999999995e-07
  sol:chk:feastolrel = 1.0000000000000001e-09
Set parameter Heuristics to value 0.05
  mip:heurfrac = 0.050000000000000003

AMPL MP initial flat model has 1223 variables (0 integer, 0 binary);
Objectives: 1 linear; 
Constraints:  4661 linear; 317 quadratic;
Algebraic expressions:  317 signpowconstexp;

AMPL MP final model has 2808 variables (0 integer, 0 binary);
Objectives: 1 linear; 
Constraints:  4978 linear; 317 quadratic;
Algebraic expressions:  317 signpowconstexp;


Set parameter InfUnbdInfo to value 1
Gurobi Optimizer version 13.0.0 build v13.0.0rc1 (linux64 - "Debian GNU/Linux 13 (trixie)")

CPU model: INTEL(R) XEON(R) GOLD 6530, instruction set [SSE2|AVX|AVX2|AVX512]
Thread count: 32 physical cores, 64 logical processors, using up to 32 threads

Non-default parameters:
TimeLimit  600
MIPGap  1e-06
MIPGapAbs  1e-06
Method  2
ScaleFlag  1
MIPFocus  1
NodeMethod  1
OBBT  0
NLPHeur  1
VarBranch  0
InfUnbdInfo  1
NonConvex  2
NumericFocus  1
Presolve  1

Optimize a model with 4978 rows, 2808 columns and 10095 nonzeros (Min)
Model fingerprint: 0x31948fdb
Model has 317 linear objective coefficients
Model has 317 general nonlinear constraints (634 nonlinear terms)
Variable types: 2808 continuous, 0 integer (0 binary)
Coefficient statistics:
  Matrix range     [1e-01, 2e+07]
  Objective range  [1e+00, 1e+00]
  Bounds range     [4e-03, 1e+02]
  RHS range        [1e-05, 5e+05]
  NLCon coe range  [1e+00, 1e+03]
Presolve model has 317 nlconstr
Added 634 variables to disaggregate expressions
Presolve removed 593 rows and 1276 columns
Presolve time: 0.02s
Presolved: 8506 rows, 2167 columns, 18687 nonzeros
Presolved model has 317 bilinear constraint(s)
Presolved model has 317 nonlinear constraint(s)

Solving non-convex NLP to global optimality

Variable types: 2167 continuous, 0 integer (0 binary)
Root barrier log...

Ordering time: 0.01s

Barrier statistics:
 Dense cols : 6
 AA' NZ     : 7.623e+04
 Factor NZ  : 1.046e+05 (roughly 5 MB of memory)
 Factor Ops : 1.807e+06 (less than 1 second per iteration)
 Threads    : 32

                  Objective                Residual
Iter       Primal          Dual         Primal    Dual     Compl     Time
   0   6.52204616e+07 -2.38335352e+09  1.22e+04 9.37e+00  1.02e+06     1s
   1   3.85463938e+07 -4.15218159e+08  4.92e+03 4.12e-12  2.54e+05     1s
   2   1.31820316e+07 -7.72624924e+07  2.58e+00 4.27e-11  8.39e+03     2s
   3   7.10174225e+06 -2.03765288e+06  3.66e-01 2.36e-12  8.48e+02     2s
   4   5.17424843e+06  4.27484707e+05  2.25e-01 8.78e-13  4.42e+02     2s
   5   4.27971475e+06  1.00782541e+06  1.59e-01 2.84e-12  3.06e+02     2s
   6   3.55249167e+06  1.24542791e+06  1.06e-01 4.05e-12  2.16e+02     2s
   7   2.60554918e+06  1.72098866e+06  3.52e-02 9.13e-12  8.30e+01     2s
   8   2.22791130e+06  1.99683819e+06  7.90e-03 4.99e-12  2.15e+01     2s
   9   2.14989897e+06  2.07506386e+06  1.61e-03 9.68e-12  6.90e+00     2s
  10   2.13445416e+06  2.12501323e+06  3.79e-04 4.33e-12  8.72e-01     2s
  11   2.12993412e+06  2.12923174e+06  3.98e-05 6.74e-13  6.51e-02     2s
  12   2.12937206e+06  2.12936242e+06  3.41e-07 7.51e-13  8.90e-04     2s
  13   2.12936652e+06  2.12936652e+06  1.33e-10 6.74e-13  1.23e-08     2s
  14   2.12936652e+06  2.12936652e+06  7.28e-12 7.89e-13  1.23e-11     2s

Barrier solved model in 14 iterations and 2.35 seconds (0.48 work units)
Optimal objective 2.12936652e+06

Crossover time: 0.02 seconds (0.01 work units)

Root relaxation: objective 2.129367e+06, 637 iterations, 1.00 seconds (0.05 work units)

    Nodes    |    Current Node    |     Objective Bounds      |     Work
 Expl Unexpl |  Obj  Depth IntInf | Incumbent    BestBd   Gap | It/Node Time

     0     0 2129366.52    0  317          - 2129366.52      -     -    2s
     0     0 2129366.52    0  316          - 2129366.52      -     -    3s
     0     0 2129366.52    0  316          - 2129366.52      -     -    3s
     0     2 2129366.52    0  316          - 2129366.52      -     -   29s
     1     5 2129366.52    1  317          - 2129366.52      -  2672   30s
     7    16 2133735.07    3  319          - 2129366.52      -   639   35s
   281   453 2274723.11   10  306          - 2129366.52      -   127   40s
  1475  1868 2308121.16   18  306          - 2129366.52      -   101   48s
  1963  2435 2311530.72   27  294          - 2129366.52      -   133   52s
  2594  2687 2311590.36   45  239          - 2129366.52      -   165   58s
  2850  2925 2311530.72   48  246          - 2129366.52      -   177   65s
  3094  3449 2311533.63   49  256          - 2129366.52      -   195   72s
  3710  4277 2341974.66   52  262          - 2129366.52      -   217   81s
  4678  4932 2323004.55   53  244          - 2129366.52      -   247   91s
  5445  5439 2368040.55   65  273          - 2129366.52      -   279  101s
  6006  6362 2346362.97   65  275          - 2129366.52      -   285  112s
  7031  7526 2574065.08   86  265          - 2129366.52      -   279  124s
  8403  8526 2685970.38  118  316          - 2129366.52      -   287  141s
  9579  9325 3149464.63  139  337          - 2129366.52      -   302  156s
 10538 10132 3064571.11  150  340          - 2129366.52      -   316  169s
 11411 11109 3063382.31  150  338          - 2129366.52      -   317  181s
 12540 12270 2129418.10   27  275          - 2129366.52      -   327  194s
 13881 12930 2137016.34   44  268          - 2129366.52      -   333  207s
 14612 12931 2213027.00  106    0          - 2129366.52      -   337  213s
 14613 12932 2133149.76   59    0          - 2129366.52      -   337  217s
 14616 12934 2129369.26   30    0          - 2129366.52      -   337  266s
 14617 12937 2129366.52   13  317          - 2129366.52      -   337  270s
 14679 13009 2129366.52   18  305          - 2129366.52      -   336  277s
 15098 13829 2129366.52   24  290          - 2129366.52      -   328  280s
 16696 14637 2129379.20   49  264          - 2129366.52      -   307  291s
 17026 14707 2129379.20   50  262          - 2129366.52      -   306  299s
 17214 15521 2129379.73   50  258          - 2129366.52      -   308  306s
 18102 16418 2150889.59   86  288          - 2129366.52      -   312  314s
 19353 17098 infeasible  121               - 2129366.52      -   320  322s
 20508 17275 2261071.65  145  381          - 2129366.52      -   327  330s
 21152 17710 2249749.08  145  356          - 2129366.52      -   334  339s
 21892 17646 2250177.64  146  369          - 2129366.52      -   339  350s
 22093 17693 2313980.23  146  354          - 2129366.52      -   340  362s
 22211 18073 2250250.38  147  371          - 2129366.52      -   340  373s
 22682 18517 2253815.35  150  376          - 2129366.52      -   341  383s
 23361 18826 2299123.28  159  403          - 2129366.52      -   345  395s
 23948 19092 2303525.88  160  389          - 2129366.52      -   346  408s
 24540 19552 2346816.64  160  408          - 2129366.52      -   348  420s
 25411 20257 infeasible  171               - 2129366.52      -   351  432s
 26755 20706 2582234.82  196  384          - 2129366.52      -   358  443s
 27926 20848 2835307.66  211  398          - 2129366.52      -   360  461s
 28656 21403 3626709.84  227  355          - 2129366.52      -   363  477s
 29718 22777 4860270.16  249  367          - 2129366.52      -   365  496s
 31816 23352 4860270.16  250  367          - 2129366.52      -   366  516s
 33417 23176 infeasible  250               - 2129366.52      -   369  542s
 33830 25000 4867549.80  251  358          - 2129366.52      -   371  562s
 36222 25297 2138802.15   71  275          - 2129366.52      -   368  580s
 37506 26392 2214973.77   91  302          - 2129366.52      -   373  598s
 39461 25929 2485175.60  106  322          - 2129366.52      -   374  600s

Explored 39736 nodes (14878340 simplex iterations) in 600.15 seconds (227.27 work units)
Thread count was 32 (of 64 available processors)

Solution count 0

Time limit reached
Best objective -, best bound 2.129366518834e+06, gap -
Gurobi 13.0.0: time limit, without a feasible solution
1.48783e+07 simplex iterations
27 barrier iterations
39736 branching nodes
Total cost using gurobi: 0.0
gurobi solve time: 600.27 seconds

-------------------------------- Solving Recover Model using cplex --------------------------
CPLEX 22.1.2: CPLEX 22.1.2: infeasible problem
0 simplex iterations

suffix dunbdd OUT;

*******************************************************************************

Total absolute constraint violation: 8.70e+04
HEAD-LOSS CONSTRAINT: ORIGINAL vs. APPROXIMATION


Sum of original head-loss violation : 0.00e+00
Sum of approx  head-loss violation  : 0.00e+00
Sum of absolute diff (orig vs approx): 0.00e+00
Sum of relative diff (orig vs approx): 0.00e+00

*******************************************************************************

Total Cost: 0.0
cplex solve time: 0.01 seconds
